\ Model Capacitated Facility Location Problem with Latency Constraints
\ LP format - for model browsing. Use MPS format to capture full model detail.
Minimize
  78.4808164434 y[0] + 56.5088149056 y[1] + 172.1463647101 y[2]
   + 32.2298517578 x[0,0] + 27.5063467216 x[0,1] + 21.887301515 x[0,2]
   + 94.3480617192 x[0,3] + 87.7603950208 x[1,0] + 32.153110199 x[1,1]
   + 65.8884278642 x[1,2] + 40.167558205 x[1,3] + 91.54021138429999 x[2,0]
   + 46.4263334062 x[2,1] + 27.2231364833 x[2,2] + 25.4161232617 x[2,3]
Subject To
 demand_0: x[0,0] + x[1,0] + x[2,0] >= 64.35997622559999
 demand_1: x[0,1] + x[1,1] + x[2,1] >= 56.1380246337
 demand_2: x[0,2] + x[1,2] + x[2,2] >= 68.776810848
 demand_3: x[0,3] + x[1,3] + x[2,3] >= 84.4423400988
 capacity_0: - 77.8239912431 y[0] + x[0,0] + x[0,1] + x[0,2] + x[0,3] <= 0
 capacity_1: - 23.6757591244 y[1] + x[1,0] + x[1,1] + x[1,2] + x[1,3] <= 0
 capacity_2: - 4.1779241465 y[2] + x[2,0] + x[2,1] + x[2,2] + x[2,3] <= 0
 latency_0_0: - 22.84041178970001 x[0,0] <= 0
 latency_0_1: - 52.40443782810001 x[0,1] <= 0
 latency_0_2: - 20.5418440398 x[0,2] <= 0
 latency_0_3: 10.46860840469999 x[0,3] <= 0
 latency_1_0: - 38.875207063 x[1,0] <= 0
 latency_1_1: - 56.70310191530001 x[1,1] <= 0
 latency_1_2: 20.3403659711 x[1,2] <= 0
 latency_1_3: - 27.97275399790001 x[1,3] <= 0
 latency_2_0: - 69.41582526670001 x[2,0] <= 0
 latency_2_1: - 73.7513359049 x[2,1] <= 0
 latency_2_2: - 67.56059316720001 x[2,2] <= 0
 latency_2_3: - 16.2986989433 x[2,3] <= 0
Bounds
Binaries
 y[0] y[1] y[2]
End
